(declare-const __VERIFIER_assert__cond___49 Int)
(declare-const |main____CPAchecker_TMP_0___7':379:408:425:632:651| Int)
(declare-const |havoc:15:160:414:621:640| Int)
(declare-const |havoc:27:164:418:625:644| Int)
(declare-const |havoc:21:162:416:623:642| Int)
(declare-const havoc Int)
(declare-const |havoc:6:157:411:618:637| Int)
(declare-const |havoc:18:161:415:622:641| Int)
(declare-const __VERIFIER_assert__cond___50 Int)
(declare-const |__VERIFIER_assert__cond___49':382:407:424:631:650| Int)
(declare-const |main____CPAchecker_TMP_0___8':381:410:427:634:653| Int)
(declare-const |main____CPAchecker_TMP_1___7':380:403:420:627:646| Int)
(declare-const |main__t':378:404:421:628:647| Int)
(declare-const |K:401:402:419:626:645| Int)
(declare-const |havoc:9:158:412:619:638| Int)
(declare-const |havoc:2:156:636| Int)
(declare-const |havoc:12:159:413:620:639| Int)
(declare-const |havoc:24:163:417:624:643| Int)
(declare-const main____CPAchecker_TMP_0___8 Int)
(declare-const |__tmp_3137_1':376:405:422:629:648| Int)
(declare-const |__VERIFIER_assert__cond___50':383:409:426:633:652| Int)
(declare-const |havoc:34:165:375:542:635:654| Int)
(declare-const |__tmp_3137_0':377:406:423:630:649| Int)
(assert (and (<= (+ (- havoc) 1) 0) (not (= (+ (- havoc) 1) 0))
               (= |havoc:2:156:636| 0)
               (not (= (ite (<= (+ (- havoc) 1) 0) 1 0) 0))
               (not (= (+ (- havoc) 2) 0)) (= |havoc:6:157:411:618:637| 0)
               (not (= (ite (<= (+ (- havoc) 2) 0) 1 0) 0))
               (not (= (+ (- havoc) 3) 0)) (= |havoc:9:158:412:619:638| 0)
               (not (= (ite (<= (+ (- havoc) 3) 0) 1 0) 0))
               (not (= (+ (- havoc) 4) 0)) (= |havoc:12:159:413:620:639| 0)
               (not (= (ite (<= (+ (- havoc) 4) 0) 1 0) 0))
               (not (= (+ (- havoc) 5) 0)) (= |havoc:15:160:414:621:640| 0)
               (not (= (ite (<= (+ (- havoc) 5) 0) 1 0) 0))
               (not (= (+ (- havoc) 6) 0)) (= |havoc:18:161:415:622:641| 0)
               (not (= (ite (<= (+ (- havoc) 6) 0) 1 0) 0))
               (not (= (+ (- havoc) 7) 0)) (= |havoc:21:162:416:623:642| 0)
               (not (= (ite (<= (+ (- havoc) 7) 0) 1 0) 0))
               (not (= (+ (- havoc) 8) 0)) (= |havoc:24:163:417:624:643| 0)
               (not (= (ite (<= (+ (- havoc) 8) 0) 1 0) 0))
               (not (= (+ (- havoc) 9) 0)) (= |havoc:27:164:418:625:644| 0)
               (not (= (ite (<= (+ (- havoc) 9) 0) 1 0) 0))
               (or (not (and (<= (- |K:401:402:419:626:645|) 0)
                               (<= |K:401:402:419:626:645| 0)))
                     (= (+ |main____CPAchecker_TMP_1___7':380:403:420:627:646|
                             (- |K:401:402:419:626:645|) -8) 0))
               (or (not (<= (+ (- |K:401:402:419:626:645|) 1) 0))
                     (= (+ |main____CPAchecker_TMP_1___7':380:403:420:627:646|
                             (- |K:401:402:419:626:645|) -7) 0))
               (or (not (and (<= (- |K:401:402:419:626:645|) 0)
                               (<= |K:401:402:419:626:645| 0)))
                     (= (+ |main__t':378:404:421:628:647|
                             (- |K:401:402:419:626:645|) -9) 0))
               (or (not (<= (+ (- |K:401:402:419:626:645|) 1) 0))
                     (= (+ |main__t':378:404:421:628:647|
                             (- |K:401:402:419:626:645|) -9) 0))
               (or (not (and (<= (- |K:401:402:419:626:645|) 0)
                               (<= |K:401:402:419:626:645| 0)))
                     (= (+ |__tmp_3137_1':376:405:422:629:648|
                             (- |havoc:27:164:418:625:644|)) 0))
               (or (not (<= (+ (- |K:401:402:419:626:645|) 1) 0))
                     (= |__tmp_3137_1':376:405:422:629:648| 0))
               (or (not (and (<= (- |K:401:402:419:626:645|) 0)
                               (<= |K:401:402:419:626:645| 0)))
                     (= (+ |__tmp_3137_0':377:406:423:630:649|
                             (- |K:401:402:419:626:645|) -8) 0))
               (or (not (<= (+ (- |K:401:402:419:626:645|) 1) 0))
                     (= (+ |__tmp_3137_0':377:406:423:630:649|
                             (- |K:401:402:419:626:645|) -8) 0))
               (or (not (and (<= (- |K:401:402:419:626:645|) 0)
                               (<= |K:401:402:419:626:645| 0)))
                     (= (+ (- __VERIFIER_assert__cond___49)
                             |__VERIFIER_assert__cond___49':382:407:424:631:650|) 0))
               (or (not (<= (+ (- |K:401:402:419:626:645|) 1) 0))
                     (= (+ |__VERIFIER_assert__cond___49':382:407:424:631:650|
                             -1) 0))
               (or (not (and (<= (- |K:401:402:419:626:645|) 0)
                               (<= |K:401:402:419:626:645| 0)))
                     (= (+ |main____CPAchecker_TMP_0___7':379:408:425:632:651|
                             (- |havoc:27:164:418:625:644|)) 0))
               (or (not (<= (+ (- |K:401:402:419:626:645|) 1) 0))
                     (= |main____CPAchecker_TMP_0___7':379:408:425:632:651| 0))
               (or (not (and (<= (- |K:401:402:419:626:645|) 0)
                               (<= |K:401:402:419:626:645| 0)))
                     (= (+ (- __VERIFIER_assert__cond___50)
                             |__VERIFIER_assert__cond___50':383:409:426:633:652|) 0))
               (or (not (<= (+ (- |K:401:402:419:626:645|) 1) 0))
                     (= (+ |__VERIFIER_assert__cond___50':383:409:426:633:652|
                             -1) 0))
               (or (not (and (<= (- |K:401:402:419:626:645|) 0)
                               (<= |K:401:402:419:626:645| 0)))
                     (= (+ (- main____CPAchecker_TMP_0___8)
                             |main____CPAchecker_TMP_0___8':381:410:427:634:653|) 0))
               (or (not (<= (+ (- |K:401:402:419:626:645|) 1) 0))
                     (= |main____CPAchecker_TMP_0___8':381:410:427:634:653| 0))
               (or (not (and (<= (- |K:401:402:419:626:645|) 0)
                               (<= |K:401:402:419:626:645| 0)))
                     (<= (+ (* 2
                                 |main____CPAchecker_TMP_1___7':380:403:420:627:646|)
                              (- (* |K:401:402:419:626:645|
                                      |K:401:402:419:626:645|))
                              (* -13 |K:401:402:419:626:645|) -16) 0))
               (or (not (<= (+ (- |K:401:402:419:626:645|) 1) 0))
                     (<= (+ (* 2
                                 |main____CPAchecker_TMP_1___7':380:403:420:627:646|)
                              (- (* |K:401:402:419:626:645|
                                      |K:401:402:419:626:645|))
                              (* -13 |K:401:402:419:626:645|) -16) 0))
               (or (and (= |K:401:402:419:626:645| 0)
                          (= (+ __VERIFIER_assert__cond___50
                                  (- |__VERIFIER_assert__cond___50':383:409:426:633:652|)) 0)
                          (= (+ __VERIFIER_assert__cond___49
                                  (- |__VERIFIER_assert__cond___49':382:407:424:631:650|)) 0)
                          (= (+ main____CPAchecker_TMP_0___8
                                  (- |main____CPAchecker_TMP_0___8':381:410:427:634:653|)) 0)
                          (= (+ (- |main____CPAchecker_TMP_1___7':380:403:420:627:646|)
                                  8) 0)
                          (= (+ (- |main____CPAchecker_TMP_0___7':379:408:425:632:651|)
                                  |havoc:27:164:418:625:644|) 0)
                          (= (+ (- |main__t':378:404:421:628:647|) 9) 0)
                          (= (+ (- |__tmp_3137_0':377:406:423:630:649|) 8) 0)
                          (= (+ (- |__tmp_3137_1':376:405:422:629:648|)
                                  |havoc:27:164:418:625:644|) 0))
                     (and (<= (+ (- |K:401:402:419:626:645|) 1) 0)
                            (= |havoc:27:164:418:625:644| 0)
                            (= |havoc:27:164:418:625:644| 0)
                            (<= (+ (- havoc) 11) 0)
                            (= (+ (- |main__t':378:404:421:628:647|)
                                    |main____CPAchecker_TMP_1___7':380:403:420:627:646|
                                    2) 0)
                            (= (+ |__tmp_3137_0':377:406:423:630:649|
                                    (- |main__t':378:404:421:628:647|) 1) 0)
                            (= (+ |__VERIFIER_assert__cond___50':383:409:426:633:652|
                                    -1) 0)
                            (= (+ |__VERIFIER_assert__cond___49':382:407:424:631:650|
                                    -1) 0)
                            (= |main____CPAchecker_TMP_0___7':379:408:425:632:651| 0)
                            (= |main____CPAchecker_TMP_0___8':381:410:427:634:653| 0)
                            (= |__tmp_3137_1':376:405:422:629:648| 0)
                            (<= (+ |main__t':378:404:421:628:647| (- havoc) 1) 0)
                            (<= (+ (- |main__t':378:404:421:628:647|) 3) 0)))
               (<= (- |K:401:402:419:626:645|) 0)
               (< (- |main____CPAchecker_TMP_1___7':380:403:420:627:646|) 0)
               (= |__tmp_3137_1':376:405:422:629:648| 0)
               (< (- |__tmp_3137_0':377:406:423:630:649|) 0)
               (= |main____CPAchecker_TMP_0___7':379:408:425:632:651| 0)
               (< (- |main__t':378:404:421:628:647|) 0) (< (+ (- havoc) 1) 0)
               (= (+ |__tmp_3137_0':377:406:423:630:649|
                       (- |main__t':378:404:421:628:647|) 1) 0)
               (= |__tmp_3137_1':376:405:422:629:648| 0)
               (= |main____CPAchecker_TMP_0___7':379:408:425:632:651| 0)
               (not (= (+ |main__t':378:404:421:628:647| (- havoc) 1) 0))
               (not (= |havoc:34:165:375:542:635:654| 0))
               (= (ite (<= (- |main__t':378:404:421:628:647|) 0) 1 0) 0)))
(check-sat)
